p cnf 122 425
3 1 0
3 2 0
-1 -2 -3 0
6 -4 0
6 -5 0
4 5 -6 0
-9 7 0
-9 -8 0
-7 8 9 0
10 6 0
10 -9 0
-6 9 -10 0
11 -3 0
11 10 0
3 -10 -11 0
11 12 -13 0
-11 -12 -13 0
11 -12 13 0
-11 12 13 0
-13 14 -15 0
13 -14 -15 0
-13 -14 15 0
13 14 15 0
17 15 0
17 -16 0
-15 16 -17 0
-19 5 0
-19 -18 0
-5 18 19 0
21 -19 0
21 -20 0
19 20 -21 0
-22 -17 0
-22 21 0
17 -21 22 0
-23 12 0
-23 16 0
-12 -16 23 0
24 23 0
24 6 0
-23 -6 -24 0
-25 1 0
-25 7 0
-1 -7 25 0
25 -5 -26 0
-25 5 -26 0
25 5 26 0
-25 -5 26 0
24 26 -27 0
-24 -26 -27 0
24 -26 27 0
-24 26 27 0
-28 20 0
-28 -2 0
-20 2 28 0
-29 1 0
-29 8 0
-1 -8 29 0
-28 29 -30 0
28 -29 -30 0
-28 -29 30 0
28 29 30 0
27 -30 -31 0
-27 30 -31 0
27 30 31 0
-27 -30 31 0
32 22 0
32 -31 0
-22 31 -32 0
33 1 0
33 -16 0
-1 16 -33 0
-32 33 -34 0
32 -33 -34 0
-32 -33 34 0
32 33 34 0
-35 4 0
-35 -8 0
-4 8 35 0
36 -29 0
36 4 0
29 -4 -36 0
-37 -35 0
-37 36 0
35 -36 37 0
-38 19 -39 0
38 -19 -39 0
-38 -19 39 0
38 19 39 0
-40 24 0
-40 39 0
-24 -39 40 0
37 40 -41 0
-37 -40 -41 0
37 -40 41 0
-37 40 41 0
7 -35 -42 0
-7 35 -42 0
7 35 42 0
-7 -35 42 0
44 42 0
44 -43 0
-42 43 -44 0
-45 8 0
-45 -42 0
-8 42 45 0
46 -45 0
46 -9 0
45 9 -46 0
46 29 -47 0
-46 -29 -47 0
46 -29 47 0
-46 29 47 0
48 44 0
48 -47 0
-44 47 -48 0
-49 -39 0
-49 -39 0
39 49 0
50 49 0
50 29 0
-49 -29 -50 0
51 -39 0
51 -14 0
39 14 -51 0
-12 -1 -52 0
12 1 -52 0
-12 1 52 0
12 -1 52 0
-53 52 0
-53 9 0
-52 -9 53 0
-54 -51 0
-54 -53 0
51 53 54 0
-55 50 0
-55 54 0
-50 -54 55 0
-56 48 0
-56 55 0
-48 -55 56 0
-39 -27 -57 0
39 27 -57 0
-39 27 57 0
39 -27 57 0
-58 56 0
-58 -57 0
-56 57 58 0
-59 -41 0
-59 -58 0
41 58 59 0
-34 -59 -60 0
34 59 -60 0
-34 59 60 0
34 -59 60 0
61 -14 0
61 -53 0
14 53 -61 0
62 61 0
62 -47 0
-61 47 -62 0
-63 23 0
-63 -62 0
-23 62 63 0
64 -12 0
64 36 0
12 -36 -64 0
-65 -9 0
-65 -64 0
9 64 65 0
9 -25 -66 0
-9 25 -66 0
9 25 66 0
-9 -25 66 0
67 -46 0
67 -66 0
46 66 -67 0
-68 65 0
-68 -67 0
-65 67 68 0
69 -38 0
69 -68 0
38 68 -69 0
63 -69 -70 0
-63 69 -70 0
63 69 70 0
-63 -69 70 0
-71 12 0
-71 5 0
-12 -5 71 0
-72 71 0
-72 -40 0
-71 40 72 0
-73 -5 0
-73 -12 0
5 12 73 0
74 45 0
74 73 0
-45 -73 -74 0
25 14 -75 0
-25 -14 -75 0
25 -14 75 0
-25 14 75 0
74 -75 -76 0
-74 75 -76 0
74 75 76 0
-74 -75 76 0
77 13 0
77 -65 0
-13 65 -77 0
76 -77 -78 0
-76 77 -78 0
76 77 78 0
-76 -77 78 0
-6 3 -79 0
6 -3 -79 0
-6 -3 79 0
6 3 79 0
80 -12 0
80 -79 0
12 79 -80 0
-81 61 0
-81 -28 0
-61 28 81 0
82 -81 0
82 -7 0
81 7 -82 0
83 39 0
83 82 0
-39 -82 -83 0
-84 42 0
-84 15 0
-42 -15 84 0
85 73 0
85 84 0
-73 -84 -85 0
-83 85 -86 0
83 -85 -86 0
-83 -85 86 0
83 85 86 0
-87 -79 0
-87 13 0
79 -13 87 0
86 87 -88 0
-86 -87 -88 0
86 -87 88 0
-86 87 88 0
-89 -80 0
-89 88 0
80 -88 89 0
-90 78 0
-90 89 0
-78 -89 90 0
-72 90 -91 0
72 -90 -91 0
-72 -90 91 0
72 90 91 0
92 -70 0
92 -91 0
70 91 -92 0
60 92 -93 0
-60 -92 -93 0
60 -92 93 0
-60 92 93 0
94 -38 0
94 -38 0
38 -94 0
95 64 0
95 94 0
-64 -94 -95 0
12 7 -96 0
-12 -7 -96 0
12 -7 96 0
-12 7 96 0
97 65 0
97 -8 0
-65 8 -97 0
96 -97 -98 0
-96 97 -98 0
96 97 98 0
-96 -97 98 0
-99 36 0
-99 -7 0
-36 7 99 0
-100 -53 0
-100 -7 0
53 7 100 0
101 29 0
101 25 0
-29 -25 -101 0
102 100 0
102 -101 0
-100 101 -102 0
-103 -99 0
-103 102 0
99 -102 103 0
105 6 0
105 -104 0
-6 104 -105 0
-106 103 0
-106 105 0
-103 -105 106 0
107 -98 0
107 -106 0
98 106 -107 0
-108 -95 0
-108 -107 0
95 107 108 0
-109 -36 0
-109 -6 0
36 6 109 0
-110 36 0
-110 -25 0
-36 25 110 0
-111 -110 0
-111 3 0
110 -3 111 0
112 -46 0
112 61 0
46 -61 -112 0
113 111 0
113 -112 0
-111 112 -113 0
-4 -3 -114 0
4 3 -114 0
-4 3 114 0
4 -3 114 0
115 113 0
115 114 0
-113 -114 -115 0
116 -109 0
116 115 0
109 -115 -116 0
-117 108 0
-117 -116 0
-108 116 117 0
118 8 0
118 -4 0
-8 4 -118 0
119 -37 0
119 65 0
37 -65 -119 0
118 -119 -120 0
-118 119 -120 0
118 119 120 0
-118 -119 120 0
-117 120 -121 0
117 -120 -121 0
-117 -120 121 0
117 120 121 0
122 -93 0
122 -121 0
93 121 -122 0
45 48 0
93 -19 34 0
-108 106 0
-44 -115 -46 -67 -113 -11 0
-26 20 66 -32 0
-77 92 47 0
25 -34 -107 99 -75 -28 0
-55 69 56 0
120 80 -86 -71 121 -2 0
96 105 -67 -31 55 0
70 54 -71 -5 -80 0
-40 -14 -2 32 -1 -67 0
-19 -47 -20 0
-74 -20 0
-63 -41 0
-67 -47 -13 83 57 0
-93 -49 98 -121 0
107 39 0
-61 -65 105 -48 113 74 0
-104 114 115 107 -43 116 0
-82 -102 -33 26 0
-94 -92 0
-86 -98 -118 0
29 -52 -55 0
65 90 111 0
-74 88 -62 0
-6 13 118 43 106 -54 0
-66 19 80 91 -113 -70 0
34 99 -106 -77 116 0
-44 121 53 0
-38 29 75 -102 0
17 -121 -7 113 16 -107 0
26 31 92 0
-20 -62 -16 84 -55 0
81 64 -1 45 0
-19 63 72 0
-3 -12 -37 34 96 -22 0
116 -25 -96 -105 -110 66 0
-48 -1 -112 33 -74 0
-24 -110 52 -15 17 0
32 3 90 -51 0
73 -93 0
101 116 57 0
-28 44 -40 0
93 -37 5 0
59 32 60 -30 23 0
118 65 -105 -11 0
-29 28 -33 -76 1 56 0
-97 73 -82 -6 71 0
61 -73 34 22 -120 0
16 61 100 94 -8 0
94 -33 26 0
4 -33 108 0
50 -61 109 76 -28 0
18 -9 -33 107 0
43 89 0
79 40 90 57 48 0
-88 105 0
14 -87 -5 0
43 -60 0
-96 104 -9 39 -65 0
-2 -88 -43 0
-120 47 -3 0
61 -6 50 -72 0
68 2 -24 87 46 0
-14 69 -28 -72 59 -71 0
39 -22 0
97 20 -70 -13 9 0
102 -112 0
-43 100 -117 -80 0
-58 97 1 -12 -121 -72 0
122 0
